c Generated map
c Size: 13 * 13, weights in range: 1 to 10, walls: True, with ratio 0.4
c dim 1 of 3
c
p sp 169 104
c graph contains 169 nodes and 104 arcs
c
a 1 14 10
a 14 1 10
a 4 17 6
a 17 4 6
a 6 19 8
a 19 6 8
a 9 22 8
a 22 9 8
a 9 10 5
a 10 9 5
a 10 23 8
a 23 10 8
a 12 25 1
a 25 12 1
a 12 13 4
a 13 12 4
a 16 29 3
a 29 16 3
a 16 17 6
a 17 16 6
a 17 30 4
a 30 17 4
a 17 18 2
a 18 17 2
a 18 19 10
a 19 18 10
a 19 20 4
a 20 19 4
a 20 21 8
a 21 20 8
a 21 34 10
a 34 21 10
a 21 22 1
a 22 21 1
a 22 35 1
a 35 22 1
a 22 23 4
a 23 22 4
a 23 36 4
a 36 23 4
a 23 24 4
a 24 23 4
a 24 25 5
a 25 24 5
a 25 38 6
a 38 25 6
a 29 30 1
a 30 29 1
a 34 47 2
a 47 34 2
a 34 35 2
a 35 34 2
a 35 48 3
a 48 35 3
a 35 36 8
a 36 35 8
a 36 49 10
a 49 36 10
a 40 41 2
a 41 40 2
a 41 54 10
a 54 41 10
a 44 57 3
a 57 44 3
a 46 47 6
a 47 46 6
a 47 60 9
a 60 47 9
a 47 48 4
a 48 47 4
a 48 49 10
a 49 48 10
a 49 62 6
a 62 49 6
a 56 69 1
a 69 56 1
a 56 57 6
a 57 56 6
a 57 58 7
a 58 57 7
a 62 75 4
a 75 62 4
a 62 63 9
a 63 62 9
a 63 76 2
a 76 63 2
a 63 64 2
a 64 63 2
a 64 77 4
a 77 64 4
a 64 65 4
a 65 64 4
a 68 69 9
a 69 68 9
a 75 76 8
a 76 75 8
a 76 77 2
a 77 76 2
a 77 90 10
a 90 77 10
a 80 93 7
a 93 80 7
a 86 87 8
a 87 86 8
a 90 103 9
a 103 90 9
a 90 91 8
a 91 90 8
a 93 106 2
a 106 93 2
a 95 108 6
a 108 95 6
a 95 96 4
a 96 95 4
a 101 102 10
a 102 101 10
a 102 115 7
a 115 102 7
a 102 103 3
a 103 102 3
a 103 116 7
a 116 103 7
a 105 106 5
a 106 105 5
a 106 119 3
a 119 106 3
a 106 107 10
a 107 106 10
a 107 120 6
a 120 107 6
a 107 108 9
a 108 107 9
a 108 121 2
a 121 108 2
a 115 128 4
a 128 115 4
a 115 116 9
a 116 115 9
a 116 117 10
a 117 116 10
a 117 130 2
a 130 117 2
a 119 120 9
a 120 119 9
a 120 133 8
a 133 120 8
a 120 121 5
a 121 120 5
a 121 122 10
a 122 121 10
a 122 135 1
a 135 122 1
a 127 128 1
a 128 127 1
a 133 146 4
a 146 133 4
a 135 148 2
a 148 135 2
a 135 136 8
a 136 135 8
a 136 149 1
a 149 136 1
a 138 151 9
a 151 138 9
a 138 139 2
a 139 138 2
a 145 158 8
a 158 145 8
a 145 146 3
a 146 145 3
a 146 147 10
a 147 146 10
a 147 160 3
a 160 147 3
a 147 148 9
a 148 147 9
a 148 161 4
a 161 148 4
a 148 149 1
a 149 148 1
a 149 150 8
a 150 149 8
a 150 163 6
a 163 150 6
a 150 151 8
a 151 150 8
a 151 164 8
a 164 151 8
a 153 166 10
a 166 153 10
a 153 154 6
a 154 153 6
a 154 155 5
a 155 154 5
a 155 168 9
a 168 155 9
a 155 156 6
a 156 155 6
a 156 169 6
a 169 156 6
a 157 158 7
a 158 157 7
a 160 161 1
a 161 160 1
a 163 164 7
a 164 163 7
a 168 169 8
a 169 168 8
